
Gurobi 6.0.4 (win64) logging started 06/13/15 06:37:20

Warning: unknown variable 'kDash_dN' in bounds section
Read LP format model from file C:\MT\repository\VRPTWMS\instances\mip\freight\N10-C_DV10-C_SV50_F22_7_No_1.lp
Reading time = 0.00 seconds
(null): 521 rows, 310 columns, 2253 nonzeros
Optimize a model with 521 rows, 310 columns and 2253 nonzeros
Model has 1210 quadratic constraints
WARNING: Only barrier available for SOCP models
Coefficient statistics:
  Matrix range    [1e+00, 1e+02]
  Objective range [5e+00, 1e+03]
  Bounds range    [1e+00, 1e+02]
  RHS range       [1e+00, 1e+02]
Presolve removed 118 rows and 52 columns
Presolve time: 0.11s
Presolved: 2517 rows, 1365 columns, 11902 nonzeros
Variable types: 1007 continuous, 358 integer (296 binary)
Found heuristic solution: objective 10448.420000
Optimize a model with 2517 rows, 1365 columns and 11902 nonzeros
Coefficient statistics:
  Matrix range    [1e+00, 1e+02]
  Objective range [5e+00, 1e+03]
  Bounds range    [1e+00, 1e+02]
  RHS range       [1e+00, 1e+02]

Concurrent LP optimizer: dual simplex and barrier
Showing barrier log only...

Presolve removed 163 rows and 76 columns
Presolved: 2354 rows, 1289 columns, 11006 nonzeros

Root barrier log...

Ordering time: 0.02s

Barrier performed 0 iterations in 0.14 seconds
Barrier solve interrupted - model solved by another algorithm


Solved with dual simplex
Solved in 108 iterations and 0.14 seconds
Optimal objective  2.210900941e+03

Root relaxation: objective 2.210901e+03, 108 iterations, 0.03 seconds

    Nodes    |    Current Node    |     Objective Bounds      |     Work
 Expl Unexpl |  Obj  Depth IntInf | Incumbent    BestBd   Gap | It/Node Time

     0     0 2210.90094    0   41 10448.4200 2210.90094  78.8%     -    0s
H    0     0                    5274.6500000 2210.90094  58.1%     -    0s
     0     0 2232.86867    0   66 5274.65000 2232.86867  57.7%     -    0s
H    0     0                    4267.6000000 2232.86867  47.7%     -    0s
     0     0 2237.24874    0   99 4267.60000 2237.24874  47.6%     -    0s
     0     0 2241.19000    0   83 4267.60000 2241.19000  47.5%     -    0s
     0     0 2241.19000    0   81 4267.60000 2241.19000  47.5%     -    0s
     0     0 2241.19000    0   73 4267.60000 2241.19000  47.5%     -    0s
     0     0 2241.19000    0   64 4267.60000 2241.19000  47.5%     -    0s
     0     0 2241.19000    0   72 4267.60000 2241.19000  47.5%     -    0s
     0     0 2241.19000    0   63 4267.60000 2241.19000  47.5%     -    0s
     0     2 2241.19000    0   59 4267.60000 2241.19000  47.5%     -    0s
  1272   641 3301.56250   21   49 4267.60000 2271.30395  46.8%  54.6    5s
* 1310   605              39    3393.1500000 2271.41280  33.1%  55.0    5s
H 1326   588                    3367.5700000 2271.41280  32.6%  55.8    5s
H 1623   630                    3337.4800000 2272.25700  31.9%  55.6    6s
H 2122   705                    3308.5000000 2274.80653  31.2%  57.9    7s
  2595   896 2316.75806   22  102 3308.50000 2277.10737  31.2%  62.0   10s
  3763  1210     cutoff   33      3308.50000 2281.92695  31.0%  69.4   15s
  5066  1453     cutoff   32      3308.50000 2286.45698  30.9%  73.9   20s
  6234  1698     cutoff   32      3308.50000 2290.66828  30.8%  76.8   25s
  7284  1885 2293.91895   30   41 3308.50000 2293.91895  30.7%  77.9   30s
  8650  1836 2503.05335   46   66 3308.50000 2308.89000  30.2%  78.2   35s
 10161  1395 infeasible   57      3308.50000 2340.17542  29.3%  81.2   40s
 11701   726 infeasible   49      3308.50000 2375.85260  28.2%  83.9   45s

Cutting planes:
  Learned: 1
  Gomory: 5
  Implied bound: 17
  Clique: 1
  MIR: 4
  Flow cover: 7
  Zero half: 13

Explored 12639 nodes (1059538 simplex iterations) in 48.15 seconds
Thread count was 2 (of 4 available processors)

Optimal solution found (tolerance 1.00e-04)
Best objective 3.308500000000e+03, best bound 3.308500000000e+03, gap 0.0%
k_c1	5.0
k_c10	5.0
k_c2	9.0
k_c3	1.0
k_c4	6.0
k_c5	8.0
k_c6	2.0
k_c7	10.0
k_c8	4.0
k_c9	10.0
k_dN	-0.0
kDash_c1	8.0
kDash_c10	1.0
kDash_c2	2.0
kDash_c3	0.0
kDash_c4	4.0
kDash_c5	6.0
kDash_c6	5.0
kDash_c7	9.0
kDash_c8	0.0
kDash_c9	7.0
kDash_dN	-0.0
o_1	1.0
o_10	1.0
o_2	0.0
o_3	0.0
o_4	0.0
o_5	0.0
o_6	1.0
o_7	0.0
o_8	0.0
o_9	-0.0
p_1	1.0
p_10	1.0
p_2	-0.0
p_3	0.0
p_4	0.0
p_5	-0.0
p_6	1.0
p_7	-0.0
p_8	-0.0
p_9	0.0
phi_c1	17.0
phi_c10	3.0
phi_c2	18.0
phi_c3	1.0
phi_c4	8.0
phi_c5	14.0
phi_c6	12.0
phi_c7	19.0
phi_c8	6.0
phi_c9	19.0
phi_d0	22.0
phi_dN	-0.0
pi_c1	18.0
pi_c10	5.0
pi_c2	6.0
pi_c3	8.0
pi_c4	4.0
pi_c5	2.0
pi_c6	13.0
pi_c7	1.0
pi_c8	8.0
pi_c9	1.0
pi_dN	-0.0
tauD_c1	25.0
tauD_c10	63.0
tauD_c2	25.0
tauD_c3	84.0
tauD_c4	45.0
tauD_c5	38.0
tauD_c6	45.0
tauD_c7	15.0
tauD_c8	60.0
tauD_c9	9.0
tauD_d0	-0.0
tauD_dN	100.0
tauS_c1	25.0
tauS_c10	57.0
tauS_c2	8.0
tauS_c3	18.0
tauS_c4	56.0
tauS_c5	8.0
tauS_c6	38.0
tauS_c7	13.0
tauS_c8	10.0
tauS_c9	12.0
tauS_d0	-0.0
tauS_dN	79.0
x_c10_c3	1.0
x_c1_c5	1.0
x_c2_c6	1.0
x_c3_dN	1.0
x_c4_c8	1.0
x_c5_c4	1.0
x_c6_c10	1.0
x_c7_c2	1.0
x_c8_dN	1.0
x_c9_c1	1.0
x_d0_c7	1.0
x_d0_c9	1.0
z_c10_dN	1.0
z_c1_c6	1.0
z_c6_c10	1.0
z_d0_c1	1.0
